p ds 20 5
1 3
1 5
1 8
1 11
1 12
1 13
1 14
1 16
1 19
2 3
2 5
2 8
2 11
2 13
2 14
2 15
2 19
2 20
3 8
3 11
3 13
3 14
4 5
4 9
4 12
4 20
5 6
5 11
5 12
5 15
5 16
5 20
6 9
6 13
6 16
7 12
7 17
8 10
8 13
8 14
8 16
8 20
9 11
9 14
9 20
10 15
10 20
11 12
11 13
11 16
12 14
13 18
14 17
15 20
16 17
16 19
16 20
